(set-logic QF_S)
(declare-const x String)
(assert (str.in.re x (re.inter  (re.union  (re.++  (str.to.re "\u{3a}") (re.++  (str.to.re "\u{2f}")  (str.to.re "\u{2f}"))) (re.union  (re.++  (str.to.re "\u{3a}")  (str.to.re "\u{3a}")) (re.union  (re.++  (str.to.re "\u{2d}")  (str.to.re "\u{3e}")) (re.union  (str.to.re "\u{3a}") (re.union  (str.to.re "\u{2f}") (re.union  (str.to.re "\u{40}")  (str.to.re "\u{2e}"))))))) (re.opt  (str.to.re "\u{40}") ) )))
(check-sat)
(get-model)